NAME: test106
TYPE: TSP
DIMENSION: 20
EDGE_WEIGHT_TYPE: EUC_2D
NODE_COORD_SECTION
1 11.042756142609777 85.98180758212027
2 58.05053964800435 64.39509242122764
3 26.132912929957364 50.42313203681348
4 39.396672728970785 88.87042308977709
5 49.42890870039338 76.57462088816361
6 30.466412175432154 25.50786420845291
7 97.690468399432 74.75222746644324
8 12.700343917054003 74.37619012318378
9 62.59181935098512 57.24860017328383
10 97.7710292955125 57.276438189531056
11 42.1137077485231 41.32329949102359
12 51.89096451942298 90.5245208497217
13 15.079380483104277 86.99482875995331
14 98.47720600786964 68.01713484710564
15 79.24009720953758 93.43785754718566
16 62.36535001561945 82.92900281451091
17 68.28400983492622 54.071658802983215
18 3.302341055346436 25.238043724748437
19 64.09531495558596 56.4758365951081
20 67.93600291985108 64.58326118680809
EOF
